p cnf 21 15
-1 -2 -3 -4 -5 -6 -7 -8 -9 -10 -11 -12 -13 -14 -15 -16 -17 -18 -19 -20 -21 0
-15 -13 18 0
-1 4 -13 0
-15 10 -17 0
-7 -16 -21 0
13 13 -20 0
13 -13 2 0
1 2 3 4 5 6 7 8 9 10 11 12 13 14 15 16 17 18 19 20 21 0
-2 19 -18 0
12 -8 20 0
4 8 -15 0
-13 -7 -20 0
-18 -5 9 0
-1 -17 9 0
-20 -20 15 0
